
Gurobi 9.5.1 (mac64[x86]) logging started Wed Jun  8 18:39:12 2022

Set parameter LogFile to value "/Users/keyvanmajd/Documents/GitHub/NNRepLayer_v2/demos/walking_example/repair_bound_constraint/repair_net/logs/opt_log_6_8_2022_18_38_57.log"
Gurobi Optimizer version 9.5.1 build v9.5.1rc2 (mac64[x86])
Thread count: 4 physical cores, 8 logical processors, using up to 8 threads
Optimize a model with 366 rows, 134 columns and 1433 nonzeros
Model fingerprint: 0x480d8fd8
Model has 101 quadratic objective terms
Coefficient statistics:
  Matrix range     [5e-03, 1e+01]
  Objective range  [7e-02, 4e+01]
  QObjective range [2e+00, 2e+00]
  Bounds range     [5e+00, 3e+01]
  RHS range        [3e-03, 2e+01]
Presolve removed 217 rows and 9 columns
Presolve time: 0.00s
Presolved: 149 rows, 125 columns, 1208 nonzeros
Presolved model has 101 quadratic objective terms
Ordering time: 0.00s

Barrier statistics:
 Dense cols : 22
 AA' NZ     : 1.203e+03
 Factor NZ  : 1.696e+03
 Factor Ops : 2.142e+04 (less than 1 second per iteration)
 Threads    : 1

                  Objective                Residual
Iter       Primal          Dual         Primal    Dual     Compl     Time
   0   2.53424455e+07 -3.40801309e+07  7.93e+03 4.38e+02  9.01e+05     0s
   1   1.02951521e+07 -1.90087883e+07  4.94e+03 2.73e+02  6.12e+05     0s
   2   6.20489694e+04 -1.04483623e+07  3.40e+02 1.88e+01  8.85e+04     0s
   3   7.33805000e+03 -5.19460876e+06  9.15e+00 5.05e-01  1.83e+04     0s
   4   6.58469198e+03 -7.74851404e+04  6.53e-02 3.60e-03  2.81e+02     0s
   5   1.11269863e+03 -1.24848286e+04  6.80e-03 3.75e-04  4.53e+01     0s
   6   3.06164391e+02 -3.50716902e+03  1.20e-03 6.61e-05  1.27e+01     0s
   7   1.68659620e+02 -1.73680050e+03  1.13e-04 6.22e-06  6.35e+00     0s
   8   1.49285996e+02 -1.39056639e+02  1.61e-05 8.89e-07  9.61e-01     0s
   9   1.35226123e+02  9.96795009e+01  2.77e-08 1.53e-09  1.18e-01     0s
  10   1.30686635e+02  1.22970926e+02  4.39e-09 2.42e-10  2.57e-02     0s
  11   1.30290404e+02  1.27062350e+02  1.14e-13 1.56e-13  1.08e-02     0s
  12   1.30151155e+02  1.30139412e+02  3.38e-14 4.27e-14  3.91e-05     0s
  13   1.30149809e+02  1.30149795e+02  3.39e-13 2.34e-14  4.61e-08     0s
  14   1.30149806e+02  1.30149806e+02  1.29e-12 1.27e-14  4.61e-11     0s

Barrier solved model in 14 iterations and 0.00 seconds (0.00 work units)
Optimal objective 1.30149806e+02

